\ This file has been generated by DOcplex
\ ENCODING=ISO-8859-1
\Problem name: Battery_Energy_Storage_System1231

Maximize
 obj: 9.310000000000 quantity_discharge_1 + 9.510000000000 quantity_discharge_2
      + 11.780000000000 quantity_discharge_3
      + 12.550000000000 quantity_discharge_4
      + 13.760000000000 quantity_discharge_5
      + 14.520000000000 quantity_discharge_6
      + 20.040000000000 quantity_discharge_7
      + 23.720000000000 quantity_discharge_8
      + 21.460000000000 quantity_discharge_9
      + 18.150000000000 quantity_discharge_10
      + 14.590000000000 quantity_discharge_11
      + 10.450000000000 quantity_discharge_12
      + 11.420000000000 quantity_discharge_13
      + 11.930000000000 quantity_discharge_14
      + 10.540000000000 quantity_discharge_15
      + 10.480000000000 quantity_discharge_16
      + 10.180000000000 quantity_discharge_17
      + 26.640000000000 quantity_discharge_18
      + 24.570000000000 quantity_discharge_19
      + 15.530000000000 quantity_discharge_20
      + 13.570000000000 quantity_discharge_21
      + 11.300000000000 quantity_discharge_22
      + 8.820000000000 quantity_discharge_23
      + 12.400000000000 quantity_discharge_24 - 9.310000000000 quantity_charge_1
      - 9.510000000000 quantity_charge_2 - 11.780000000000 quantity_charge_3
      - 12.550000000000 quantity_charge_4 - 13.760000000000 quantity_charge_5
      - 14.520000000000 quantity_charge_6 - 20.040000000000 quantity_charge_7
      - 23.720000000000 quantity_charge_8 - 21.460000000000 quantity_charge_9
      - 18.150000000000 quantity_charge_10 - 14.590000000000 quantity_charge_11
      - 10.450000000000 quantity_charge_12 - 11.420000000000 quantity_charge_13
      - 11.930000000000 quantity_charge_14 - 10.540000000000 quantity_charge_15
      - 10.480000000000 quantity_charge_16 - 10.180000000000 quantity_charge_17
      - 26.640000000000 quantity_charge_18 - 24.570000000000 quantity_charge_19
      - 15.530000000000 quantity_charge_20 - 13.570000000000 quantity_charge_21
      - 11.300000000000 quantity_charge_22 - 8.820000000000 quantity_charge_23
      - 12.400000000000 quantity_charge_24
      + 1.340000000000 quantity_regulation_up_1
      + 1.470000000000 quantity_regulation_up_2
      + 1.450000000000 quantity_regulation_up_3
      + 1.750000000000 quantity_regulation_up_4
      + 1.810000000000 quantity_regulation_up_5 + 2 quantity_regulation_up_6
      + 2.990000000000 quantity_regulation_up_7
      + 2.980000000000 quantity_regulation_up_8
      + 2.610000000000 quantity_regulation_up_9
      + 3.040000000000 quantity_regulation_up_10
      + 2.150000000000 quantity_regulation_up_11
      + 2.010000000000 quantity_regulation_up_12
      + 1.950000000000 quantity_regulation_up_13
      + 1.980000000000 quantity_regulation_up_14
      + 2.160000000000 quantity_regulation_up_15
      + 2.650000000000 quantity_regulation_up_16
      + 5.980000000000 quantity_regulation_up_17
      + 8.490000000000 quantity_regulation_up_18
      + 1.980000000000 quantity_regulation_up_19
      + 0.980000000000 quantity_regulation_up_20
      + 1.500000000000 quantity_regulation_up_21
      + 1.600000000000 quantity_regulation_up_22
      + 0.910000000000 quantity_regulation_up_23
      + 1.110000000000 quantity_regulation_up_24 + 2 quantity_regulation_down_1
      + 3.190000000000 quantity_regulation_down_2
      + 1.470000000000 quantity_regulation_down_3
      + 1.250000000000 quantity_regulation_down_4
      + 1.250000000000 quantity_regulation_down_5
      + 1.560000000000 quantity_regulation_down_6
      + 1.450000000000 quantity_regulation_down_7
      + 2.360000000000 quantity_regulation_down_8
      + 5.320000000000 quantity_regulation_down_9
      + 3.140000000000 quantity_regulation_down_10
      + 2 quantity_regulation_down_11
      + 1.790000000000 quantity_regulation_down_12
      + 2 quantity_regulation_down_13 + 2 quantity_regulation_down_14
      + 2 quantity_regulation_down_15 + 2 quantity_regulation_down_16
      + 4.200000000000 quantity_regulation_down_17
      + 1.540000000000 quantity_regulation_down_18
      + 1.550000000000 quantity_regulation_down_19
      + 1.250000000000 quantity_regulation_down_20
      + 1.250000000000 quantity_regulation_down_21
      + 1.250000000000 quantity_regulation_down_22
      + 1.250000000000 quantity_regulation_down_23
      + 1.530000000000 quantity_regulation_down_24
Subject To
 state_of_charge_(12,_2,_31): state_of_charge_2
                              + 0.900000000000 quantity_discharge_2
                              - 0.900000000000 quantity_charge_2
                              - 0.090000000000 quantity_regulation_up_2
                              - 0.090000000000 quantity_regulation_down_2
                              - state_of_charge_1 = 0
 state_of_charge_(12,_3,_31): state_of_charge_3
                              + 0.900000000000 quantity_discharge_3
                              - 0.900000000000 quantity_charge_3
                              - 0.090000000000 quantity_regulation_up_3
                              - 0.090000000000 quantity_regulation_down_3
                              - state_of_charge_2 = 0
 state_of_charge_(12,_4,_31): state_of_charge_4
                              + 0.900000000000 quantity_discharge_4
                              - 0.900000000000 quantity_charge_4
                              - 0.090000000000 quantity_regulation_up_4
                              - 0.090000000000 quantity_regulation_down_4
                              - state_of_charge_3 = 0
 state_of_charge_(12,_5,_31): state_of_charge_5
                              + 0.900000000000 quantity_discharge_5
                              - 0.900000000000 quantity_charge_5
                              - 0.090000000000 quantity_regulation_up_5
                              - 0.090000000000 quantity_regulation_down_5
                              - state_of_charge_4 = 0
 state_of_charge_(12,_6,_31): state_of_charge_6
                              + 0.900000000000 quantity_discharge_6
                              - 0.900000000000 quantity_charge_6
                              - 0.090000000000 quantity_regulation_up_6
                              - 0.090000000000 quantity_regulation_down_6
                              - state_of_charge_5 = 0
 state_of_charge_(12,_7,_31): state_of_charge_7
                              + 0.900000000000 quantity_discharge_7
                              - 0.900000000000 quantity_charge_7
                              - 0.090000000000 quantity_regulation_up_7
                              - 0.090000000000 quantity_regulation_down_7
                              - state_of_charge_6 = 0
 state_of_charge_(12,_8,_31): state_of_charge_8
                              + 0.900000000000 quantity_discharge_8
                              - 0.900000000000 quantity_charge_8
                              - 0.090000000000 quantity_regulation_up_8
                              - 0.090000000000 quantity_regulation_down_8
                              - state_of_charge_7 = 0
 state_of_charge_(12,_9,_31): state_of_charge_9
                              + 0.900000000000 quantity_discharge_9
                              - 0.900000000000 quantity_charge_9
                              - 0.090000000000 quantity_regulation_up_9
                              - 0.090000000000 quantity_regulation_down_9
                              - state_of_charge_8 = 0
 state_of_charge_(12,_10,_31): state_of_charge_10
                               + 0.900000000000 quantity_discharge_10
                               - 0.900000000000 quantity_charge_10
                               - 0.090000000000 quantity_regulation_up_10
                               - 0.090000000000 quantity_regulation_down_10
                               - state_of_charge_9 = 0
 state_of_charge_(12,_11,_31): state_of_charge_11
                               + 0.900000000000 quantity_discharge_11
                               - 0.900000000000 quantity_charge_11
                               - 0.090000000000 quantity_regulation_up_11
                               - 0.090000000000 quantity_regulation_down_11
                               - state_of_charge_10 = 0
 state_of_charge_(12,_12,_31): state_of_charge_12
                               + 0.900000000000 quantity_discharge_12
                               - 0.900000000000 quantity_charge_12
                               - 0.090000000000 quantity_regulation_up_12
                               - 0.090000000000 quantity_regulation_down_12
                               - state_of_charge_11 = 0
 state_of_charge_(12,_13,_31): state_of_charge_13
                               + 0.900000000000 quantity_discharge_13
                               - 0.900000000000 quantity_charge_13
                               - 0.090000000000 quantity_regulation_up_13
                               - 0.090000000000 quantity_regulation_down_13
                               - state_of_charge_12 = 0
 state_of_charge_(12,_14,_31): state_of_charge_14
                               + 0.900000000000 quantity_discharge_14
                               - 0.900000000000 quantity_charge_14
                               - 0.090000000000 quantity_regulation_up_14
                               - 0.090000000000 quantity_regulation_down_14
                               - state_of_charge_13 = 0
 state_of_charge_(12,_15,_31): state_of_charge_15
                               + 0.900000000000 quantity_discharge_15
                               - 0.900000000000 quantity_charge_15
                               - 0.090000000000 quantity_regulation_up_15
                               - 0.090000000000 quantity_regulation_down_15
                               - state_of_charge_14 = 0
 state_of_charge_(12,_16,_31): state_of_charge_16
                               + 0.900000000000 quantity_discharge_16
                               - 0.900000000000 quantity_charge_16
                               - 0.090000000000 quantity_regulation_up_16
                               - 0.090000000000 quantity_regulation_down_16
                               - state_of_charge_15 = 0
 state_of_charge_(12,_17,_31): state_of_charge_17
                               + 0.900000000000 quantity_discharge_17
                               - 0.900000000000 quantity_charge_17
                               - 0.090000000000 quantity_regulation_up_17
                               - 0.090000000000 quantity_regulation_down_17
                               - state_of_charge_16 = 0
 state_of_charge_(12,_18,_31): state_of_charge_18
                               + 0.900000000000 quantity_discharge_18
                               - 0.900000000000 quantity_charge_18
                               - 0.090000000000 quantity_regulation_up_18
                               - 0.090000000000 quantity_regulation_down_18
                               - state_of_charge_17 = 0
 state_of_charge_(12,_19,_31): state_of_charge_19
                               + 0.900000000000 quantity_discharge_19
                               - 0.900000000000 quantity_charge_19
                               - 0.090000000000 quantity_regulation_up_19
                               - 0.090000000000 quantity_regulation_down_19
                               - state_of_charge_18 = 0
 state_of_charge_(12,_20,_31): state_of_charge_20
                               + 0.900000000000 quantity_discharge_20
                               - 0.900000000000 quantity_charge_20
                               - 0.090000000000 quantity_regulation_up_20
                               - 0.090000000000 quantity_regulation_down_20
                               - state_of_charge_19 = 0
 state_of_charge_(12,_21,_31): state_of_charge_21
                               + 0.900000000000 quantity_discharge_21
                               - 0.900000000000 quantity_charge_21
                               - 0.090000000000 quantity_regulation_up_21
                               - 0.090000000000 quantity_regulation_down_21
                               - state_of_charge_20 = 0
 state_of_charge_(12,_22,_31): state_of_charge_22
                               + 0.900000000000 quantity_discharge_22
                               - 0.900000000000 quantity_charge_22
                               - 0.090000000000 quantity_regulation_up_22
                               - 0.090000000000 quantity_regulation_down_22
                               - state_of_charge_21 = 0
 state_of_charge_(12,_23,_31): state_of_charge_23
                               + 0.900000000000 quantity_discharge_23
                               - 0.900000000000 quantity_charge_23
                               - 0.090000000000 quantity_regulation_up_23
                               - 0.090000000000 quantity_regulation_down_23
                               - state_of_charge_22 = 0
 state_of_charge_(12,_24,_31): state_of_charge_24
                               + 0.900000000000 quantity_discharge_24
                               - 0.900000000000 quantity_charge_24
                               - 0.090000000000 quantity_regulation_up_24
                               - 0.090000000000 quantity_regulation_down_24
                               - state_of_charge_23 = 0
 initial_state_of_charge(12,_31): state_of_charge_1 = 100
 state_of_charge_upper_bound_(12,_1,_31): state_of_charge_1 <= 200
 state_of_charge_upper_bound_(12,_2,_31): state_of_charge_2 <= 200
 state_of_charge_upper_bound_(12,_3,_31): state_of_charge_3 <= 200
 state_of_charge_upper_bound_(12,_4,_31): state_of_charge_4 <= 200
 state_of_charge_upper_bound_(12,_5,_31): state_of_charge_5 <= 200
 state_of_charge_upper_bound_(12,_6,_31): state_of_charge_6 <= 200
 state_of_charge_upper_bound_(12,_7,_31): state_of_charge_7 <= 200
 state_of_charge_upper_bound_(12,_8,_31): state_of_charge_8 <= 200
 state_of_charge_upper_bound_(12,_9,_31): state_of_charge_9 <= 200
 state_of_charge_upper_bound_(12,_10,_31): state_of_charge_10 <= 200
 state_of_charge_upper_bound_(12,_11,_31): state_of_charge_11 <= 200
 state_of_charge_upper_bound_(12,_12,_31): state_of_charge_12 <= 200
 state_of_charge_upper_bound_(12,_13,_31): state_of_charge_13 <= 200
 state_of_charge_upper_bound_(12,_14,_31): state_of_charge_14 <= 200
 state_of_charge_upper_bound_(12,_15,_31): state_of_charge_15 <= 200
 state_of_charge_upper_bound_(12,_16,_31): state_of_charge_16 <= 200
 state_of_charge_upper_bound_(12,_17,_31): state_of_charge_17 <= 200
 state_of_charge_upper_bound_(12,_18,_31): state_of_charge_18 <= 200
 state_of_charge_upper_bound_(12,_19,_31): state_of_charge_19 <= 200
 state_of_charge_upper_bound_(12,_20,_31): state_of_charge_20 <= 200
 state_of_charge_upper_bound_(12,_21,_31): state_of_charge_21 <= 200
 state_of_charge_upper_bound_(12,_22,_31): state_of_charge_22 <= 200
 state_of_charge_upper_bound_(12,_23,_31): state_of_charge_23 <= 200
 state_of_charge_upper_bound_(12,_24,_31): state_of_charge_24 <= 200
 state_of_charge_lower_bound_(12,_1,_31): state_of_charge_1 >= 0
 state_of_charge_lower_bound_(12,_2,_31): state_of_charge_2 >= 0
 state_of_charge_lower_bound_(12,_3,_31): state_of_charge_3 >= 0
 state_of_charge_lower_bound_(12,_4,_31): state_of_charge_4 >= 0
 state_of_charge_lower_bound_(12,_5,_31): state_of_charge_5 >= 0
 state_of_charge_lower_bound_(12,_6,_31): state_of_charge_6 >= 0
 state_of_charge_lower_bound_(12,_7,_31): state_of_charge_7 >= 0
 state_of_charge_lower_bound_(12,_8,_31): state_of_charge_8 >= 0
 state_of_charge_lower_bound_(12,_9,_31): state_of_charge_9 >= 0
 state_of_charge_lower_bound_(12,_10,_31): state_of_charge_10 >= 0
 state_of_charge_lower_bound_(12,_11,_31): state_of_charge_11 >= 0
 state_of_charge_lower_bound_(12,_12,_31): state_of_charge_12 >= 0
 state_of_charge_lower_bound_(12,_13,_31): state_of_charge_13 >= 0
 state_of_charge_lower_bound_(12,_14,_31): state_of_charge_14 >= 0
 state_of_charge_lower_bound_(12,_15,_31): state_of_charge_15 >= 0
 state_of_charge_lower_bound_(12,_16,_31): state_of_charge_16 >= 0
 state_of_charge_lower_bound_(12,_17,_31): state_of_charge_17 >= 0
 state_of_charge_lower_bound_(12,_18,_31): state_of_charge_18 >= 0
 state_of_charge_lower_bound_(12,_19,_31): state_of_charge_19 >= 0
 state_of_charge_lower_bound_(12,_20,_31): state_of_charge_20 >= 0
 state_of_charge_lower_bound_(12,_21,_31): state_of_charge_21 >= 0
 state_of_charge_lower_bound_(12,_22,_31): state_of_charge_22 >= 0
 state_of_charge_lower_bound_(12,_23,_31): state_of_charge_23 >= 0
 state_of_charge_lower_bound_(12,_24,_31): state_of_charge_24 >= 0
 recharge_upper_bound_(12,_1,_31): quantity_charge_1
                                   + quantity_regulation_down_1 <= 100
 recharge_upper_bound_(12,_2,_31): quantity_charge_2
                                   + quantity_regulation_down_2 <= 100
 recharge_upper_bound_(12,_3,_31): quantity_charge_3
                                   + quantity_regulation_down_3 <= 100
 recharge_upper_bound_(12,_4,_31): quantity_charge_4
                                   + quantity_regulation_down_4 <= 100
 recharge_upper_bound_(12,_5,_31): quantity_charge_5
                                   + quantity_regulation_down_5 <= 100
 recharge_upper_bound_(12,_6,_31): quantity_charge_6
                                   + quantity_regulation_down_6 <= 100
 recharge_upper_bound_(12,_7,_31): quantity_charge_7
                                   + quantity_regulation_down_7 <= 100
 recharge_upper_bound_(12,_8,_31): quantity_charge_8
                                   + quantity_regulation_down_8 <= 100
 recharge_upper_bound_(12,_9,_31): quantity_charge_9
                                   + quantity_regulation_down_9 <= 100
 recharge_upper_bound_(12,_10,_31): quantity_charge_10
                                    + quantity_regulation_down_10 <= 100
 recharge_upper_bound_(12,_11,_31): quantity_charge_11
                                    + quantity_regulation_down_11 <= 100
 recharge_upper_bound_(12,_12,_31): quantity_charge_12
                                    + quantity_regulation_down_12 <= 100
 recharge_upper_bound_(12,_13,_31): quantity_charge_13
                                    + quantity_regulation_down_13 <= 100
 recharge_upper_bound_(12,_14,_31): quantity_charge_14
                                    + quantity_regulation_down_14 <= 100
 recharge_upper_bound_(12,_15,_31): quantity_charge_15
                                    + quantity_regulation_down_15 <= 100
 recharge_upper_bound_(12,_16,_31): quantity_charge_16
                                    + quantity_regulation_down_16 <= 100
 recharge_upper_bound_(12,_17,_31): quantity_charge_17
                                    + quantity_regulation_down_17 <= 100
 recharge_upper_bound_(12,_18,_31): quantity_charge_18
                                    + quantity_regulation_down_18 <= 100
 recharge_upper_bound_(12,_19,_31): quantity_charge_19
                                    + quantity_regulation_down_19 <= 100
 recharge_upper_bound_(12,_20,_31): quantity_charge_20
                                    + quantity_regulation_down_20 <= 100
 recharge_upper_bound_(12,_21,_31): quantity_charge_21
                                    + quantity_regulation_down_21 <= 100
 recharge_upper_bound_(12,_22,_31): quantity_charge_22
                                    + quantity_regulation_down_22 <= 100
 recharge_upper_bound_(12,_23,_31): quantity_charge_23
                                    + quantity_regulation_down_23 <= 100
 recharge_upper_bound_(12,_24,_31): quantity_charge_24
                                    + quantity_regulation_down_24 <= 100
 recharge_lower_bound_(12,_1,_31): quantity_charge_1
                                   + quantity_regulation_down_1 >= 0
 recharge_lower_bound_(12,_2,_31): quantity_charge_2
                                   + quantity_regulation_down_2 >= 0
 recharge_lower_bound_(12,_3,_31): quantity_charge_3
                                   + quantity_regulation_down_3 >= 0
 recharge_lower_bound_(12,_4,_31): quantity_charge_4
                                   + quantity_regulation_down_4 >= 0
 recharge_lower_bound_(12,_5,_31): quantity_charge_5
                                   + quantity_regulation_down_5 >= 0
 recharge_lower_bound_(12,_6,_31): quantity_charge_6
                                   + quantity_regulation_down_6 >= 0
 recharge_lower_bound_(12,_7,_31): quantity_charge_7
                                   + quantity_regulation_down_7 >= 0
 recharge_lower_bound_(12,_8,_31): quantity_charge_8
                                   + quantity_regulation_down_8 >= 0
 recharge_lower_bound_(12,_9,_31): quantity_charge_9
                                   + quantity_regulation_down_9 >= 0
 recharge_lower_bound_(12,_10,_31): quantity_charge_10
                                    + quantity_regulation_down_10 >= 0
 recharge_lower_bound_(12,_11,_31): quantity_charge_11
                                    + quantity_regulation_down_11 >= 0
 recharge_lower_bound_(12,_12,_31): quantity_charge_12
                                    + quantity_regulation_down_12 >= 0
 recharge_lower_bound_(12,_13,_31): quantity_charge_13
                                    + quantity_regulation_down_13 >= 0
 recharge_lower_bound_(12,_14,_31): quantity_charge_14
                                    + quantity_regulation_down_14 >= 0
 recharge_lower_bound_(12,_15,_31): quantity_charge_15
                                    + quantity_regulation_down_15 >= 0
 recharge_lower_bound_(12,_16,_31): quantity_charge_16
                                    + quantity_regulation_down_16 >= 0
 recharge_lower_bound_(12,_17,_31): quantity_charge_17
                                    + quantity_regulation_down_17 >= 0
 recharge_lower_bound_(12,_18,_31): quantity_charge_18
                                    + quantity_regulation_down_18 >= 0
 recharge_lower_bound_(12,_19,_31): quantity_charge_19
                                    + quantity_regulation_down_19 >= 0
 recharge_lower_bound_(12,_20,_31): quantity_charge_20
                                    + quantity_regulation_down_20 >= 0
 recharge_lower_bound_(12,_21,_31): quantity_charge_21
                                    + quantity_regulation_down_21 >= 0
 recharge_lower_bound_(12,_22,_31): quantity_charge_22
                                    + quantity_regulation_down_22 >= 0
 recharge_lower_bound_(12,_23,_31): quantity_charge_23
                                    + quantity_regulation_down_23 >= 0
 recharge_lower_bound_(12,_24,_31): quantity_charge_24
                                    + quantity_regulation_down_24 >= 0
 discharge_upper_bound_(12,_1,_31): quantity_discharge_1
                                    + quantity_regulation_up_1 <= 100
 discharge_upper_bound_(12,_2,_31): quantity_discharge_2
                                    + quantity_regulation_up_2 <= 100
 discharge_upper_bound_(12,_3,_31): quantity_discharge_3
                                    + quantity_regulation_up_3 <= 100
 discharge_upper_bound_(12,_4,_31): quantity_discharge_4
                                    + quantity_regulation_up_4 <= 100
 discharge_upper_bound_(12,_5,_31): quantity_discharge_5
                                    + quantity_regulation_up_5 <= 100
 discharge_upper_bound_(12,_6,_31): quantity_discharge_6
                                    + quantity_regulation_up_6 <= 100
 discharge_upper_bound_(12,_7,_31): quantity_discharge_7
                                    + quantity_regulation_up_7 <= 100
 discharge_upper_bound_(12,_8,_31): quantity_discharge_8
                                    + quantity_regulation_up_8 <= 100
 discharge_upper_bound_(12,_9,_31): quantity_discharge_9
                                    + quantity_regulation_up_9 <= 100
 discharge_upper_bound_(12,_10,_31): quantity_discharge_10
                                     + quantity_regulation_up_10 <= 100
 discharge_upper_bound_(12,_11,_31): quantity_discharge_11
                                     + quantity_regulation_up_11 <= 100
 discharge_upper_bound_(12,_12,_31): quantity_discharge_12
                                     + quantity_regulation_up_12 <= 100
 discharge_upper_bound_(12,_13,_31): quantity_discharge_13
                                     + quantity_regulation_up_13 <= 100
 discharge_upper_bound_(12,_14,_31): quantity_discharge_14
                                     + quantity_regulation_up_14 <= 100
 discharge_upper_bound_(12,_15,_31): quantity_discharge_15
                                     + quantity_regulation_up_15 <= 100
 discharge_upper_bound_(12,_16,_31): quantity_discharge_16
                                     + quantity_regulation_up_16 <= 100
 discharge_upper_bound_(12,_17,_31): quantity_discharge_17
                                     + quantity_regulation_up_17 <= 100
 discharge_upper_bound_(12,_18,_31): quantity_discharge_18
                                     + quantity_regulation_up_18 <= 100
 discharge_upper_bound_(12,_19,_31): quantity_discharge_19
                                     + quantity_regulation_up_19 <= 100
 discharge_upper_bound_(12,_20,_31): quantity_discharge_20
                                     + quantity_regulation_up_20 <= 100
 discharge_upper_bound_(12,_21,_31): quantity_discharge_21
                                     + quantity_regulation_up_21 <= 100
 discharge_upper_bound_(12,_22,_31): quantity_discharge_22
                                     + quantity_regulation_up_22 <= 100
 discharge_upper_bound_(12,_23,_31): quantity_discharge_23
                                     + quantity_regulation_up_23 <= 100
 discharge_upper_bound_(12,_24,_31): quantity_discharge_24
                                     + quantity_regulation_up_24 <= 100
 discharge_lower_bound_(12,_1,_31): quantity_discharge_1
                                    + quantity_regulation_up_1 >= 0
 discharge_lower_bound_(12,_2,_31): quantity_discharge_2
                                    + quantity_regulation_up_2 >= 0
 discharge_lower_bound_(12,_3,_31): quantity_discharge_3
                                    + quantity_regulation_up_3 >= 0
 discharge_lower_bound_(12,_4,_31): quantity_discharge_4
                                    + quantity_regulation_up_4 >= 0
 discharge_lower_bound_(12,_5,_31): quantity_discharge_5
                                    + quantity_regulation_up_5 >= 0
 discharge_lower_bound_(12,_6,_31): quantity_discharge_6
                                    + quantity_regulation_up_6 >= 0
 discharge_lower_bound_(12,_7,_31): quantity_discharge_7
                                    + quantity_regulation_up_7 >= 0
 discharge_lower_bound_(12,_8,_31): quantity_discharge_8
                                    + quantity_regulation_up_8 >= 0
 discharge_lower_bound_(12,_9,_31): quantity_discharge_9
                                    + quantity_regulation_up_9 >= 0
 discharge_lower_bound_(12,_10,_31): quantity_discharge_10
                                     + quantity_regulation_up_10 >= 0
 discharge_lower_bound_(12,_11,_31): quantity_discharge_11
                                     + quantity_regulation_up_11 >= 0
 discharge_lower_bound_(12,_12,_31): quantity_discharge_12
                                     + quantity_regulation_up_12 >= 0
 discharge_lower_bound_(12,_13,_31): quantity_discharge_13
                                     + quantity_regulation_up_13 >= 0
 discharge_lower_bound_(12,_14,_31): quantity_discharge_14
                                     + quantity_regulation_up_14 >= 0
 discharge_lower_bound_(12,_15,_31): quantity_discharge_15
                                     + quantity_regulation_up_15 >= 0
 discharge_lower_bound_(12,_16,_31): quantity_discharge_16
                                     + quantity_regulation_up_16 >= 0
 discharge_lower_bound_(12,_17,_31): quantity_discharge_17
                                     + quantity_regulation_up_17 >= 0
 discharge_lower_bound_(12,_18,_31): quantity_discharge_18
                                     + quantity_regulation_up_18 >= 0
 discharge_lower_bound_(12,_19,_31): quantity_discharge_19
                                     + quantity_regulation_up_19 >= 0
 discharge_lower_bound_(12,_20,_31): quantity_discharge_20
                                     + quantity_regulation_up_20 >= 0
 discharge_lower_bound_(12,_21,_31): quantity_discharge_21
                                     + quantity_regulation_up_21 >= 0
 discharge_lower_bound_(12,_22,_31): quantity_discharge_22
                                     + quantity_regulation_up_22 >= 0
 discharge_lower_bound_(12,_23,_31): quantity_discharge_23
                                     + quantity_regulation_up_23 >= 0
 discharge_lower_bound_(12,_24,_31): quantity_discharge_24
                                     + quantity_regulation_up_24 >= 0
 charge_cycle_constraint_(12,_31): quantity_charge_1 + quantity_charge_2
                                   + quantity_charge_3 + quantity_charge_4
                                   + quantity_charge_5 + quantity_charge_6
                                   + quantity_charge_7 + quantity_charge_8
                                   + quantity_charge_9 + quantity_charge_10
                                   + quantity_charge_11 + quantity_charge_12
                                   + quantity_charge_13 + quantity_charge_14
                                   + quantity_charge_15 + quantity_charge_16
                                   + quantity_charge_17 + quantity_charge_18
                                   + quantity_charge_19 + quantity_charge_20
                                   + quantity_charge_21 + quantity_charge_22
                                   + quantity_charge_23 + quantity_charge_24
                                   + quantity_regulation_down_1
                                   + quantity_regulation_down_2
                                   + quantity_regulation_down_3
                                   + quantity_regulation_down_4
                                   + quantity_regulation_down_5
                                   + quantity_regulation_down_6
                                   + quantity_regulation_down_7
                                   + quantity_regulation_down_8
                                   + quantity_regulation_down_9
                                   + quantity_regulation_down_10
                                   + quantity_regulation_down_11
                                   + quantity_regulation_down_12
                                   + quantity_regulation_down_13
                                   + quantity_regulation_down_14
                                   + quantity_regulation_down_15
                                   + quantity_regulation_down_16
                                   + quantity_regulation_down_17
                                   + quantity_regulation_down_18
                                   + quantity_regulation_down_19
                                   + quantity_regulation_down_20
                                   + quantity_regulation_down_21
                                   + quantity_regulation_down_22
                                   + quantity_regulation_down_23
                                   + quantity_regulation_down_24 <= 100
 discharge_cycle_constraint_(12,_31): quantity_discharge_1
                                      + quantity_discharge_2
                                      + quantity_discharge_3
                                      + quantity_discharge_4
                                      + quantity_discharge_5
                                      + quantity_discharge_6
                                      + quantity_discharge_7
                                      + quantity_discharge_8
                                      + quantity_discharge_9
                                      + quantity_discharge_10
                                      + quantity_discharge_11
                                      + quantity_discharge_12
                                      + quantity_discharge_13
                                      + quantity_discharge_14
                                      + quantity_discharge_15
                                      + quantity_discharge_16
                                      + quantity_discharge_17
                                      + quantity_discharge_18
                                      + quantity_discharge_19
                                      + quantity_discharge_20
                                      + quantity_discharge_21
                                      + quantity_discharge_22
                                      + quantity_discharge_23
                                      + quantity_discharge_24
                                      + quantity_regulation_up_1
                                      + quantity_regulation_up_2
                                      + quantity_regulation_up_3
                                      + quantity_regulation_up_4
                                      + quantity_regulation_up_5
                                      + quantity_regulation_up_6
                                      + quantity_regulation_up_7
                                      + quantity_regulation_up_8
                                      + quantity_regulation_up_9
                                      + quantity_regulation_up_10
                                      + quantity_regulation_up_11
                                      + quantity_regulation_up_12
                                      + quantity_regulation_up_13
                                      + quantity_regulation_up_14
                                      + quantity_regulation_up_15
                                      + quantity_regulation_up_16
                                      + quantity_regulation_up_17
                                      + quantity_regulation_up_18
                                      + quantity_regulation_up_19
                                      + quantity_regulation_up_20
                                      + quantity_regulation_up_21
                                      + quantity_regulation_up_22
                                      + quantity_regulation_up_23
                                      + quantity_regulation_up_24 <= 100

Bounds
End
